\* IPL *\
Maximize
OBJ: 0.214 Chosen_Abdul_Basith + 0.167 Chosen_Abhijeet_Tomar
 + 0.944 Chosen_Adam_Milne + 1.155 Chosen_Adil_Rashid
 + 0.395 Chosen_Akash_Singh + 0.904 Chosen_Akeal_Hosein
 + 1.144 Chosen_Alzarri_Joseph + 1.07 Chosen_Aman_Khan
 + 0.751 Chosen_Andrew_Tye + 0.655 Chosen_Ankit_Rajpoot
 + 0.937 Chosen_Arshad_Khan + 0.413 Chosen_Baba_Indrajith
 + 0.525 Chosen_Basil_Thampi + 1.79 Chosen_Ben_Stokes
 + 1.278 Chosen_Bhanuka_Rajapaksa + 1.205 Chosen_Chetan_Sakariya
 + 1.378 Chosen_Chris_Jordan + 0.959 Chosen_Chris_Lynn
 + 1.481 Chosen_Chris_Woakes + 1.377 Chosen_Daniel_Sams
 + 0.5 Chosen_Daryl_Mitchell + 0.711 Chosen_Dasun_Shanaka
 + 0.731 Chosen_David_Malan + 0.938 Chosen_David_Wiese
 + 1.708 Chosen_David_Willey + 0.569 Chosen_Dhawal_Kulkarni
 + 0.183 Chosen_Duan_Jansen + 1.632 Chosen_Dushmantha_Chameera
 + 1.427 Chosen_Dwaine_Pretorius + 0.611 Chosen_Fabian_Allen
 + 0.609 Chosen_George_Garton + 1.519 Chosen_Gurkeerat_Singh
 + 0.066 Chosen_Gurnoor_Brar + 1.296 Chosen_Harry_Brook
 + 2.53 Chosen_Harshal_Patel + 1.443 Chosen_Hrithik_Shokeen
 + 0.329 Chosen_Ishan_Porel + 0.762 Chosen_Jagadeesah_Suchith
 + 0.28 Chosen_Jalaj_Saxena + 1.363 Chosen_James_Neesham
 + 1.496 Chosen_James_Pattinson + 2.488 Chosen_Jason_Holder
 + 1.749 Chosen_Jaydev_Unadkat + 0.609 Chosen_Jhye_Richardson
 + 0.705 Chosen_Joe_Root + 2.111 Chosen_Jofra_Archer
 + 1.491 Chosen_Josh_Hazlewood + 0.942 Chosen_Josh_Philippe
 + 0.486 Chosen_KM_Asif + 0.77 Chosen_Kamlesh_Nagarkoti
 + 0.49 Chosen_Kane_Richardson + 0.222 Chosen_Karan_Sharma
 + 0.983 Chosen_Kartik_Tyagi + 0.764 Chosen_Karun_Nair
 + 0.976 Chosen_Kedar_Jadhav + 0.25 Chosen_Kulwant_Khejroliya
 + 0.912 Chosen_Kumar_Kartikeya + 1.585 Chosen_Kyle_Jamieson
 + 0.273 Chosen_Liton_Das + 2.045 Chosen_Lockie_Ferguson
 + 0.529 Chosen_Lukeman_Meriwala + 0.507 Chosen_Manan_Vohra
 + 0.962 Chosen_Mandeep_Singh + 2.236 Chosen_Manish_Pandey
 + 1.498 Chosen_Matthew_Short + 2.078 Chosen_Michael_Bracewell
 + 1.315 Chosen_Mohammad_Nabi + 0.214 Chosen_Mohit_Rathee
 + 1.82 Chosen_Mohsin_Khan + 2.462 Chosen_Moises_Henriques
 + 0.49 Chosen_Monu_Kumar + 0.687 Chosen_Mujeeb_Rahman
 + 0.459 Chosen_Murali_Vijay + 1.328 Chosen_Murugan_Ashwin
 + 1.186 Chosen_Mustafizur_Rahman + 1.082 Chosen_Narayan_Jagadeesan
 + 1.165 Chosen_Nathan_CoulterNile + 0.086 Chosen_Nikhil_Naik
 + 0.168 Chosen_Nitish_Reddy + 1.185 Chosen_Obed_Mccoy
 + 1.279 Chosen_Odean_Smith + 2.204 Chosen_Pat_Cummins
 + 1.613 Chosen_Phil_Salt + 0.958 Chosen_Pradeep_Sangwan
 + 1.287 Chosen_Priyam_Garg + 0.313 Chosen_Raghav_Goyal
 + 0.269 Chosen_Raj_Bawa + 2.624 Chosen_Ramandeep_Singh
 + 0.894 Chosen_Rasikh_Salam + 0.637 Chosen_Rassie_van_der_Dussen
 + 1.546 Chosen_Rilee_Rossouw + 0.809 Chosen_Riley_Meredith
 + 1.336 Chosen_Ripal_Patel + 1.431 Chosen_Rovman_Powell
 + 0.171 Chosen_Sachin_Baby + 0.998 Chosen_Sam_Billings
 + 0.264 Chosen_Sandeep_Warrier + 0.174 Chosen_Sanjay_Yadav
 + 1.235 Chosen_Sarfaraz_Khan + 0.67 Chosen_Sean_Abbott
 + 1.927 Chosen_Shahbaz_Ahmed + 1.048 Chosen_Shahbaz_Nadeem
 + 1.697 Chosen_Shahrukh_Khan + 1.276 Chosen_Shakib_Al_Hasan
 + 2.348 Chosen_Shardul_Thakur + 1.131 Chosen_Shashank_Singh
 + 0.52 Chosen_Sheldon_Cottrell + 0.512 Chosen_Sherfane_Rutherford
 + 1.586 Chosen_Shivam_Mavi + 1.228 Chosen_Shreyas_Gopal
 + 0.698 Chosen_Siddharth_Kaul + 0.412 Chosen_Sisanda_Magala
 + 1.482 Chosen_Srikar_Bharat + 1.322 Chosen_Steve_Smith
 + 0.566 Chosen_Swapnil_Singh + 0.609 Chosen_Tabraiz_Shamsi
 + 0.738 Chosen_Tim_Seifert + 1.147 Chosen_Tim_Southee
 + 0.338 Chosen_Tom_Banton + 1.785 Chosen_Tom_Curran
 + 1.722 Chosen_Tristan_Stubbs + 0.419 Chosen_Tymal_Mills
 + 1.518 Chosen_Umesh_Yadav + 0.272 Chosen_Varun_Aaron
 + 0.284 Chosen_Virat_Singh + 1.948 Chosen_Vivrant_Sharma
 + 1.801 Chosen_Wanindu_Hasaranga + 0.776 Chosen_Wayne_Parnell
 + 0.575 Chosen_Yash_Dayal
Subject To
ar_max: Chosen_Abdul_Basith + Chosen_Adam_Milne + Chosen_Aman_Khan
 + Chosen_Ben_Stokes + Chosen_Chetan_Sakariya + Chosen_Chris_Jordan
 + Chosen_Daniel_Sams + Chosen_David_Wiese + Chosen_Dushmantha_Chameera
 + Chosen_Dwaine_Pretorius + Chosen_Hrithik_Shokeen + Chosen_James_Pattinson
 + Chosen_Jason_Holder + Chosen_Jhye_Richardson + Chosen_Kamlesh_Nagarkoti
 + Chosen_Lockie_Ferguson + Chosen_Michael_Bracewell + Chosen_Mohammad_Nabi
 + Chosen_Mohsin_Khan + Chosen_Moises_Henriques + Chosen_Mujeeb_Rahman
 + Chosen_Murugan_Ashwin + Chosen_Nathan_CoulterNile + Chosen_Nitish_Reddy
 + Chosen_Odean_Smith + Chosen_Pat_Cummins + Chosen_Ramandeep_Singh
 + Chosen_Rovman_Powell + Chosen_Shahbaz_Ahmed + Chosen_Shahbaz_Nadeem
 + Chosen_Shakib_Al_Hasan + Chosen_Shardul_Thakur + Chosen_Shivam_Mavi
 + Chosen_Shreyas_Gopal + Chosen_Tom_Curran + Chosen_Tristan_Stubbs
 + Chosen_Wanindu_Hasaranga <= 4
ar_min: Chosen_Abdul_Basith + Chosen_Adam_Milne + Chosen_Aman_Khan
 + Chosen_Ben_Stokes + Chosen_Chetan_Sakariya + Chosen_Chris_Jordan
 + Chosen_Daniel_Sams + Chosen_David_Wiese + Chosen_Dushmantha_Chameera
 + Chosen_Dwaine_Pretorius + Chosen_Hrithik_Shokeen + Chosen_James_Pattinson
 + Chosen_Jason_Holder + Chosen_Jhye_Richardson + Chosen_Kamlesh_Nagarkoti
 + Chosen_Lockie_Ferguson + Chosen_Michael_Bracewell + Chosen_Mohammad_Nabi
 + Chosen_Mohsin_Khan + Chosen_Moises_Henriques + Chosen_Mujeeb_Rahman
 + Chosen_Murugan_Ashwin + Chosen_Nathan_CoulterNile + Chosen_Nitish_Reddy
 + Chosen_Odean_Smith + Chosen_Pat_Cummins + Chosen_Ramandeep_Singh
 + Chosen_Rovman_Powell + Chosen_Shahbaz_Ahmed + Chosen_Shahbaz_Nadeem
 + Chosen_Shakib_Al_Hasan + Chosen_Shardul_Thakur + Chosen_Shivam_Mavi
 + Chosen_Shreyas_Gopal + Chosen_Tom_Curran + Chosen_Tristan_Stubbs
 + Chosen_Wanindu_Hasaranga >= 1
bat_max: Chosen_Abhijeet_Tomar + Chosen_Baba_Indrajith
 + Chosen_Bhanuka_Rajapaksa + Chosen_Chris_Lynn + Chosen_Chris_Woakes
 + Chosen_Daryl_Mitchell + Chosen_Dasun_Shanaka + Chosen_David_Malan
 + Chosen_David_Willey + Chosen_Gurkeerat_Singh + Chosen_Harry_Brook
 + Chosen_James_Neesham + Chosen_Joe_Root + Chosen_Josh_Philippe
 + Chosen_Karan_Sharma + Chosen_Karun_Nair + Chosen_Kedar_Jadhav
 + Chosen_Liton_Das + Chosen_Manan_Vohra + Chosen_Mandeep_Singh
 + Chosen_Manish_Pandey + Chosen_Matthew_Short + Chosen_Murali_Vijay
 + Chosen_Narayan_Jagadeesan + Chosen_Nikhil_Naik + Chosen_Phil_Salt
 + Chosen_Priyam_Garg + Chosen_Raj_Bawa + Chosen_Rasikh_Salam
 + Chosen_Rassie_van_der_Dussen + Chosen_Rilee_Rossouw + Chosen_Ripal_Patel
 + Chosen_Sachin_Baby + Chosen_Sam_Billings + Chosen_Sarfaraz_Khan
 + Chosen_Shahrukh_Khan + Chosen_Shashank_Singh + Chosen_Sherfane_Rutherford
 + Chosen_Shreevats_Goswami + Chosen_Srikar_Bharat + Chosen_Steve_Smith
 + Chosen_Tim_Seifert + Chosen_Tom_Banton + Chosen_Virat_Singh
 + Chosen_Vivrant_Sharma <= 4
bat_min: Chosen_Abhijeet_Tomar + Chosen_Baba_Indrajith
 + Chosen_Bhanuka_Rajapaksa + Chosen_Chris_Lynn + Chosen_Chris_Woakes
 + Chosen_Daryl_Mitchell + Chosen_Dasun_Shanaka + Chosen_David_Malan
 + Chosen_David_Willey + Chosen_Gurkeerat_Singh + Chosen_Harry_Brook
 + Chosen_James_Neesham + Chosen_Joe_Root + Chosen_Josh_Philippe
 + Chosen_Karan_Sharma + Chosen_Karun_Nair + Chosen_Kedar_Jadhav
 + Chosen_Liton_Das + Chosen_Manan_Vohra + Chosen_Mandeep_Singh
 + Chosen_Manish_Pandey + Chosen_Matthew_Short + Chosen_Murali_Vijay
 + Chosen_Narayan_Jagadeesan + Chosen_Nikhil_Naik + Chosen_Phil_Salt
 + Chosen_Priyam_Garg + Chosen_Raj_Bawa + Chosen_Rasikh_Salam
 + Chosen_Rassie_van_der_Dussen + Chosen_Rilee_Rossouw + Chosen_Ripal_Patel
 + Chosen_Sachin_Baby + Chosen_Sam_Billings + Chosen_Sarfaraz_Khan
 + Chosen_Shahrukh_Khan + Chosen_Shashank_Singh + Chosen_Sherfane_Rutherford
 + Chosen_Shreevats_Goswami + Chosen_Srikar_Bharat + Chosen_Steve_Smith
 + Chosen_Tim_Seifert + Chosen_Tom_Banton + Chosen_Virat_Singh
 + Chosen_Vivrant_Sharma >= 2
bowl_max: Chosen_Adil_Rashid + Chosen_Akash_Singh + Chosen_Akeal_Hosein
 + Chosen_Alzarri_Joseph + Chosen_Andrew_Tye + Chosen_Ankit_Rajpoot
 + Chosen_Arshad_Khan + Chosen_Basil_Thampi + Chosen_Dhawal_Kulkarni
 + Chosen_Duan_Jansen + Chosen_Fabian_Allen + Chosen_George_Garton
 + Chosen_Gurnoor_Brar + Chosen_Harshal_Patel + Chosen_Ishan_Porel
 + Chosen_Jagadeesah_Suchith + Chosen_Jalaj_Saxena + Chosen_Jaydev_Unadkat
 + Chosen_Jofra_Archer + Chosen_Josh_Hazlewood + Chosen_KM_Asif
 + Chosen_Kane_Richardson + Chosen_Kartik_Tyagi + Chosen_Kulwant_Khejroliya
 + Chosen_Kumar_Kartikeya + Chosen_Kyle_Jamieson + Chosen_Lukeman_Meriwala
 + Chosen_Mohit_Rathee + Chosen_Monu_Kumar + Chosen_Mustafizur_Rahman
 + Chosen_Obed_Mccoy + Chosen_Pradeep_Sangwan + Chosen_Raghav_Goyal
 + Chosen_Riley_Meredith + Chosen_Sandeep_Warrier + Chosen_Sanjay_Yadav
 + Chosen_Sean_Abbott + Chosen_Sheldon_Cottrell + Chosen_Siddharth_Kaul
 + Chosen_Sisanda_Magala + Chosen_Swapnil_Singh + Chosen_Tabraiz_Shamsi
 + Chosen_Tim_Southee + Chosen_Tymal_Mills + Chosen_Umesh_Yadav
 + Chosen_Varun_Aaron + Chosen_Wayne_Parnell + Chosen_Yash_Dayal <= 2
bowl_min: Chosen_Adil_Rashid + Chosen_Akash_Singh + Chosen_Akeal_Hosein
 + Chosen_Alzarri_Joseph + Chosen_Andrew_Tye + Chosen_Ankit_Rajpoot
 + Chosen_Arshad_Khan + Chosen_Basil_Thampi + Chosen_Dhawal_Kulkarni
 + Chosen_Duan_Jansen + Chosen_Fabian_Allen + Chosen_George_Garton
 + Chosen_Gurnoor_Brar + Chosen_Harshal_Patel + Chosen_Ishan_Porel
 + Chosen_Jagadeesah_Suchith + Chosen_Jalaj_Saxena + Chosen_Jaydev_Unadkat
 + Chosen_Jofra_Archer + Chosen_Josh_Hazlewood + Chosen_KM_Asif
 + Chosen_Kane_Richardson + Chosen_Kartik_Tyagi + Chosen_Kulwant_Khejroliya
 + Chosen_Kumar_Kartikeya + Chosen_Kyle_Jamieson + Chosen_Lukeman_Meriwala
 + Chosen_Mohit_Rathee + Chosen_Monu_Kumar + Chosen_Mustafizur_Rahman
 + Chosen_Obed_Mccoy + Chosen_Pradeep_Sangwan + Chosen_Raghav_Goyal
 + Chosen_Riley_Meredith + Chosen_Sandeep_Warrier + Chosen_Sanjay_Yadav
 + Chosen_Sean_Abbott + Chosen_Sheldon_Cottrell + Chosen_Siddharth_Kaul
 + Chosen_Sisanda_Magala + Chosen_Swapnil_Singh + Chosen_Tabraiz_Shamsi
 + Chosen_Tim_Southee + Chosen_Tymal_Mills + Chosen_Umesh_Yadav
 + Chosen_Varun_Aaron + Chosen_Wayne_Parnell + Chosen_Yash_Dayal >= 0
costs_max: 134 Chosen_Abdul_Basith + 223 Chosen_Abhijeet_Tomar
 + 250 Chosen_Adam_Milne + 253 Chosen_Adil_Rashid + 290 Chosen_Akash_Singh
 + 240 Chosen_Akeal_Hosein + 358 Chosen_Alzarri_Joseph + 266 Chosen_Aman_Khan
 + 257 Chosen_Andrew_Tye + 395 Chosen_Ankit_Rajpoot + 292 Chosen_Arshad_Khan
 + 212 Chosen_Baba_Indrajith + 246 Chosen_Basil_Thampi + 400 Chosen_Ben_Stokes
 + 269 Chosen_Bhanuka_Rajapaksa + 438 Chosen_Chetan_Sakariya
 + 422 Chosen_Chris_Jordan + 240 Chosen_Chris_Lynn + 274 Chosen_Chris_Woakes
 + 368 Chosen_Daniel_Sams + 246 Chosen_Daryl_Mitchell
 + 176 Chosen_Dasun_Shanaka + 197 Chosen_David_Malan + 218 Chosen_David_Wiese
 + 260 Chosen_David_Willey + 113 Chosen_Dhawal_Kulkarni
 + 280 Chosen_Duan_Jansen + 334 Chosen_Dushmantha_Chameera
 + 284 Chosen_Dwaine_Pretorius + 310 Chosen_Fabian_Allen
 + 251 Chosen_George_Garton + 169 Chosen_Gurkeerat_Singh
 + 143 Chosen_Gurnoor_Brar + 195 Chosen_Harry_Brook + 963 Chosen_Harshal_Patel
 + 257 Chosen_Hrithik_Shokeen + 233 Chosen_Ishan_Porel
 + 249 Chosen_Jagadeesah_Suchith + 110 Chosen_Jalaj_Saxena
 + 187 Chosen_James_Neesham + 320 Chosen_James_Pattinson
 + 954 Chosen_Jason_Holder + 399 Chosen_Jaydev_Unadkat
 + 214 Chosen_Jhye_Richardson + 222 Chosen_Joe_Root + 397 Chosen_Jofra_Archer
 + 554 Chosen_Josh_Hazlewood + 185 Chosen_Josh_Philippe + 249 Chosen_KM_Asif
 + 212 Chosen_Kamlesh_Nagarkoti + 198 Chosen_Kane_Richardson
 + 220 Chosen_Karan_Sharma + 390 Chosen_Kartik_Tyagi + 173 Chosen_Karun_Nair
 + 236 Chosen_Kedar_Jadhav + 256 Chosen_Kulwant_Khejroliya
 + 299 Chosen_Kumar_Kartikeya + 283 Chosen_Kyle_Jamieson
 + 208 Chosen_Liton_Das + 648 Chosen_Lockie_Ferguson
 + 192 Chosen_Lukeman_Meriwala + 212 Chosen_Manan_Vohra
 + 257 Chosen_Mandeep_Singh + 699 Chosen_Manish_Pandey
 + 197 Chosen_Matthew_Short + 287 Chosen_Michael_Bracewell
 + 211 Chosen_Mohammad_Nabi + 160 Chosen_Mohit_Rathee + 401 Chosen_Mohsin_Khan
 + 201 Chosen_Moises_Henriques + 91 Chosen_Monu_Kumar
 + 170 Chosen_Mujeeb_Rahman + 213 Chosen_Murali_Vijay
 + 434 Chosen_Murugan_Ashwin + 479 Chosen_Mustafizur_Rahman
 + 206 Chosen_Narayan_Jagadeesan + 326 Chosen_Nathan_CoulterNile
 + 234 Chosen_Nikhil_Naik + 187 Chosen_Nitish_Reddy + 283 Chosen_Obed_Mccoy
 + 300 Chosen_Odean_Smith + 739 Chosen_Pat_Cummins + 151 Chosen_Phil_Salt
 + 181 Chosen_Pradeep_Sangwan + 334 Chosen_Priyam_Garg
 + 106 Chosen_Raghav_Goyal + 222 Chosen_Raj_Bawa + 270 Chosen_Ramandeep_Singh
 + 197 Chosen_Rasikh_Salam + 285 Chosen_Rassie_van_der_Dussen
 + 289 Chosen_Rilee_Rossouw + 410 Chosen_Riley_Meredith
 + 219 Chosen_Ripal_Patel + 342 Chosen_Rovman_Powell + 236 Chosen_Sachin_Baby
 + 263 Chosen_Sam_Billings + 111 Chosen_Sandeep_Warrier
 + 123 Chosen_Sanjay_Yadav + 215 Chosen_Sarfaraz_Khan + 255 Chosen_Sean_Abbott
 + 477 Chosen_Shahbaz_Ahmed + 253 Chosen_Shahbaz_Nadeem
 + 327 Chosen_Shahrukh_Khan + 227 Chosen_Shakib_Al_Hasan
 + 1042 Chosen_Shardul_Thakur + 182 Chosen_Shashank_Singh
 + 242 Chosen_Sheldon_Cottrell + 229 Chosen_Sherfane_Rutherford
 + 516 Chosen_Shivam_Mavi + 244 Chosen_Shreevats_Goswami
 + 322 Chosen_Shreyas_Gopal + 307 Chosen_Siddharth_Kaul
 + 249 Chosen_Sisanda_Magala + 240 Chosen_Srikar_Bharat
 + 405 Chosen_Steve_Smith + 110 Chosen_Swapnil_Singh
 + 105 Chosen_Tabraiz_Shamsi + 159 Chosen_Tim_Seifert + 408 Chosen_Tim_Southee
 + 220 Chosen_Tom_Banton + 303 Chosen_Tom_Curran + 180 Chosen_Tristan_Stubbs
 + 275 Chosen_Tymal_Mills + 388 Chosen_Umesh_Yadav + 321 Chosen_Varun_Aaron
 + 219 Chosen_Virat_Singh + 115 Chosen_Vivrant_Sharma
 + 676 Chosen_Wanindu_Hasaranga + 278 Chosen_Wayne_Parnell
 + 348 Chosen_Yash_Dayal <= 3140
costs_min: 134 Chosen_Abdul_Basith + 223 Chosen_Abhijeet_Tomar
 + 250 Chosen_Adam_Milne + 253 Chosen_Adil_Rashid + 290 Chosen_Akash_Singh
 + 240 Chosen_Akeal_Hosein + 358 Chosen_Alzarri_Joseph + 266 Chosen_Aman_Khan
 + 257 Chosen_Andrew_Tye + 395 Chosen_Ankit_Rajpoot + 292 Chosen_Arshad_Khan
 + 212 Chosen_Baba_Indrajith + 246 Chosen_Basil_Thampi + 400 Chosen_Ben_Stokes
 + 269 Chosen_Bhanuka_Rajapaksa + 438 Chosen_Chetan_Sakariya
 + 422 Chosen_Chris_Jordan + 240 Chosen_Chris_Lynn + 274 Chosen_Chris_Woakes
 + 368 Chosen_Daniel_Sams + 246 Chosen_Daryl_Mitchell
 + 176 Chosen_Dasun_Shanaka + 197 Chosen_David_Malan + 218 Chosen_David_Wiese
 + 260 Chosen_David_Willey + 113 Chosen_Dhawal_Kulkarni
 + 280 Chosen_Duan_Jansen + 334 Chosen_Dushmantha_Chameera
 + 284 Chosen_Dwaine_Pretorius + 310 Chosen_Fabian_Allen
 + 251 Chosen_George_Garton + 169 Chosen_Gurkeerat_Singh
 + 143 Chosen_Gurnoor_Brar + 195 Chosen_Harry_Brook + 963 Chosen_Harshal_Patel
 + 257 Chosen_Hrithik_Shokeen + 233 Chosen_Ishan_Porel
 + 249 Chosen_Jagadeesah_Suchith + 110 Chosen_Jalaj_Saxena
 + 187 Chosen_James_Neesham + 320 Chosen_James_Pattinson
 + 954 Chosen_Jason_Holder + 399 Chosen_Jaydev_Unadkat
 + 214 Chosen_Jhye_Richardson + 222 Chosen_Joe_Root + 397 Chosen_Jofra_Archer
 + 554 Chosen_Josh_Hazlewood + 185 Chosen_Josh_Philippe + 249 Chosen_KM_Asif
 + 212 Chosen_Kamlesh_Nagarkoti + 198 Chosen_Kane_Richardson
 + 220 Chosen_Karan_Sharma + 390 Chosen_Kartik_Tyagi + 173 Chosen_Karun_Nair
 + 236 Chosen_Kedar_Jadhav + 256 Chosen_Kulwant_Khejroliya
 + 299 Chosen_Kumar_Kartikeya + 283 Chosen_Kyle_Jamieson
 + 208 Chosen_Liton_Das + 648 Chosen_Lockie_Ferguson
 + 192 Chosen_Lukeman_Meriwala + 212 Chosen_Manan_Vohra
 + 257 Chosen_Mandeep_Singh + 699 Chosen_Manish_Pandey
 + 197 Chosen_Matthew_Short + 287 Chosen_Michael_Bracewell
 + 211 Chosen_Mohammad_Nabi + 160 Chosen_Mohit_Rathee + 401 Chosen_Mohsin_Khan
 + 201 Chosen_Moises_Henriques + 91 Chosen_Monu_Kumar
 + 170 Chosen_Mujeeb_Rahman + 213 Chosen_Murali_Vijay
 + 434 Chosen_Murugan_Ashwin + 479 Chosen_Mustafizur_Rahman
 + 206 Chosen_Narayan_Jagadeesan + 326 Chosen_Nathan_CoulterNile
 + 234 Chosen_Nikhil_Naik + 187 Chosen_Nitish_Reddy + 283 Chosen_Obed_Mccoy
 + 300 Chosen_Odean_Smith + 739 Chosen_Pat_Cummins + 151 Chosen_Phil_Salt
 + 181 Chosen_Pradeep_Sangwan + 334 Chosen_Priyam_Garg
 + 106 Chosen_Raghav_Goyal + 222 Chosen_Raj_Bawa + 270 Chosen_Ramandeep_Singh
 + 197 Chosen_Rasikh_Salam + 285 Chosen_Rassie_van_der_Dussen
 + 289 Chosen_Rilee_Rossouw + 410 Chosen_Riley_Meredith
 + 219 Chosen_Ripal_Patel + 342 Chosen_Rovman_Powell + 236 Chosen_Sachin_Baby
 + 263 Chosen_Sam_Billings + 111 Chosen_Sandeep_Warrier
 + 123 Chosen_Sanjay_Yadav + 215 Chosen_Sarfaraz_Khan + 255 Chosen_Sean_Abbott
 + 477 Chosen_Shahbaz_Ahmed + 253 Chosen_Shahbaz_Nadeem
 + 327 Chosen_Shahrukh_Khan + 227 Chosen_Shakib_Al_Hasan
 + 1042 Chosen_Shardul_Thakur + 182 Chosen_Shashank_Singh
 + 242 Chosen_Sheldon_Cottrell + 229 Chosen_Sherfane_Rutherford
 + 516 Chosen_Shivam_Mavi + 244 Chosen_Shreevats_Goswami
 + 322 Chosen_Shreyas_Gopal + 307 Chosen_Siddharth_Kaul
 + 249 Chosen_Sisanda_Magala + 240 Chosen_Srikar_Bharat
 + 405 Chosen_Steve_Smith + 110 Chosen_Swapnil_Singh
 + 105 Chosen_Tabraiz_Shamsi + 159 Chosen_Tim_Seifert + 408 Chosen_Tim_Southee
 + 220 Chosen_Tom_Banton + 303 Chosen_Tom_Curran + 180 Chosen_Tristan_Stubbs
 + 275 Chosen_Tymal_Mills + 388 Chosen_Umesh_Yadav + 321 Chosen_Varun_Aaron
 + 219 Chosen_Virat_Singh + 115 Chosen_Vivrant_Sharma
 + 676 Chosen_Wanindu_Hasaranga + 278 Chosen_Wayne_Parnell
 + 348 Chosen_Yash_Dayal >= 0
foreign_max: Chosen_Adam_Milne + Chosen_Adil_Rashid + Chosen_Akeal_Hosein
 + Chosen_Alzarri_Joseph + Chosen_Andrew_Tye + Chosen_Ben_Stokes
 + Chosen_Bhanuka_Rajapaksa + Chosen_Chris_Jordan + Chosen_Chris_Lynn
 + Chosen_Chris_Woakes + Chosen_Daniel_Sams + Chosen_Daryl_Mitchell
 + Chosen_Dasun_Shanaka + Chosen_David_Malan + Chosen_David_Wiese
 + Chosen_David_Willey + Chosen_Duan_Jansen + Chosen_Dushmantha_Chameera
 + Chosen_Dwaine_Pretorius + Chosen_Fabian_Allen + Chosen_George_Garton
 + Chosen_Harry_Brook + Chosen_James_Neesham + Chosen_James_Pattinson
 + Chosen_Jason_Holder + Chosen_Jhye_Richardson + Chosen_Joe_Root
 + Chosen_Jofra_Archer + Chosen_Josh_Hazlewood + Chosen_Josh_Philippe
 + Chosen_Kane_Richardson + Chosen_Kyle_Jamieson + Chosen_Liton_Das
 + Chosen_Lockie_Ferguson + Chosen_Matthew_Short + Chosen_Michael_Bracewell
 + Chosen_Mohammad_Nabi + Chosen_Moises_Henriques + Chosen_Mujeeb_Rahman
 + Chosen_Mustafizur_Rahman + Chosen_Nathan_CoulterNile + Chosen_Obed_Mccoy
 + Chosen_Odean_Smith + Chosen_Pat_Cummins + Chosen_Phil_Salt
 + Chosen_Rassie_van_der_Dussen + Chosen_Rilee_Rossouw + Chosen_Riley_Meredith
 + Chosen_Rovman_Powell + Chosen_Sam_Billings + Chosen_Sean_Abbott
 + Chosen_Shakib_Al_Hasan + Chosen_Sheldon_Cottrell
 + Chosen_Sherfane_Rutherford + Chosen_Sisanda_Magala + Chosen_Steve_Smith
 + Chosen_Tabraiz_Shamsi + Chosen_Tim_Seifert + Chosen_Tim_Southee
 + Chosen_Tom_Banton + Chosen_Tom_Curran + Chosen_Tristan_Stubbs
 + Chosen_Tymal_Mills + Chosen_Wanindu_Hasaranga + Chosen_Wayne_Parnell <= 3
foreign_min: Chosen_Adam_Milne + Chosen_Adil_Rashid + Chosen_Akeal_Hosein
 + Chosen_Alzarri_Joseph + Chosen_Andrew_Tye + Chosen_Ben_Stokes
 + Chosen_Bhanuka_Rajapaksa + Chosen_Chris_Jordan + Chosen_Chris_Lynn
 + Chosen_Chris_Woakes + Chosen_Daniel_Sams + Chosen_Daryl_Mitchell
 + Chosen_Dasun_Shanaka + Chosen_David_Malan + Chosen_David_Wiese
 + Chosen_David_Willey + Chosen_Duan_Jansen + Chosen_Dushmantha_Chameera
 + Chosen_Dwaine_Pretorius + Chosen_Fabian_Allen + Chosen_George_Garton
 + Chosen_Harry_Brook + Chosen_James_Neesham + Chosen_James_Pattinson
 + Chosen_Jason_Holder + Chosen_Jhye_Richardson + Chosen_Joe_Root
 + Chosen_Jofra_Archer + Chosen_Josh_Hazlewood + Chosen_Josh_Philippe
 + Chosen_Kane_Richardson + Chosen_Kyle_Jamieson + Chosen_Liton_Das
 + Chosen_Lockie_Ferguson + Chosen_Matthew_Short + Chosen_Michael_Bracewell
 + Chosen_Mohammad_Nabi + Chosen_Moises_Henriques + Chosen_Mujeeb_Rahman
 + Chosen_Mustafizur_Rahman + Chosen_Nathan_CoulterNile + Chosen_Obed_Mccoy
 + Chosen_Odean_Smith + Chosen_Pat_Cummins + Chosen_Phil_Salt
 + Chosen_Rassie_van_der_Dussen + Chosen_Rilee_Rossouw + Chosen_Riley_Meredith
 + Chosen_Rovman_Powell + Chosen_Sam_Billings + Chosen_Sean_Abbott
 + Chosen_Shakib_Al_Hasan + Chosen_Sheldon_Cottrell
 + Chosen_Sherfane_Rutherford + Chosen_Sisanda_Magala + Chosen_Steve_Smith
 + Chosen_Tabraiz_Shamsi + Chosen_Tim_Seifert + Chosen_Tim_Southee
 + Chosen_Tom_Banton + Chosen_Tom_Curran + Chosen_Tristan_Stubbs
 + Chosen_Tymal_Mills + Chosen_Wanindu_Hasaranga + Chosen_Wayne_Parnell >= 0
home_ground_max: Chosen_Akash_Singh + Chosen_Aman_Khan + Chosen_Arshad_Khan
 + Chosen_David_Wiese + Chosen_Harry_Brook + Chosen_Harshal_Patel
 + Chosen_Hrithik_Shokeen + Chosen_Jason_Holder + Chosen_Jaydev_Unadkat
 + Chosen_Jofra_Archer + Chosen_Mandeep_Singh + Chosen_Manish_Pandey
 + Chosen_Mohsin_Khan + Chosen_Murugan_Ashwin + Chosen_Phil_Salt
 + Chosen_Rilee_Rossouw + Chosen_Ripal_Patel + Chosen_Shahbaz_Ahmed
 + Chosen_Shahrukh_Khan + Chosen_Shakib_Al_Hasan + Chosen_Shardul_Thakur
 + Chosen_Siddharth_Kaul + Chosen_Sisanda_Magala + Chosen_Tim_Southee
 + Chosen_Umesh_Yadav <= 2
home_ground_min: Chosen_Akash_Singh + Chosen_Aman_Khan + Chosen_Arshad_Khan
 + Chosen_David_Wiese + Chosen_Harry_Brook + Chosen_Harshal_Patel
 + Chosen_Hrithik_Shokeen + Chosen_Jason_Holder + Chosen_Jaydev_Unadkat
 + Chosen_Jofra_Archer + Chosen_Mandeep_Singh + Chosen_Manish_Pandey
 + Chosen_Mohsin_Khan + Chosen_Murugan_Ashwin + Chosen_Phil_Salt
 + Chosen_Rilee_Rossouw + Chosen_Ripal_Patel + Chosen_Shahbaz_Ahmed
 + Chosen_Shahrukh_Khan + Chosen_Shakib_Al_Hasan + Chosen_Shardul_Thakur
 + Chosen_Siddharth_Kaul + Chosen_Sisanda_Magala + Chosen_Tim_Southee
 + Chosen_Umesh_Yadav >= 0
pace_max: Chosen_Adam_Milne + Chosen_Akash_Singh + Chosen_Alzarri_Joseph
 + Chosen_Aman_Khan + Chosen_Andrew_Tye + Chosen_Ankit_Rajpoot
 + Chosen_Arshad_Khan + Chosen_Basil_Thampi + Chosen_Ben_Stokes
 + Chosen_Chetan_Sakariya + Chosen_Chris_Jordan + Chosen_Chris_Woakes
 + Chosen_Daniel_Sams + Chosen_David_Wiese + Chosen_Dhawal_Kulkarni
 + Chosen_Duan_Jansen + Chosen_Dushmantha_Chameera + Chosen_Dwaine_Pretorius
 + Chosen_Gurnoor_Brar + Chosen_Harshal_Patel + Chosen_Jagadeesah_Suchith
 + Chosen_James_Pattinson + Chosen_Jason_Holder + Chosen_Jaydev_Unadkat
 + Chosen_Jhye_Richardson + Chosen_Jofra_Archer + Chosen_Josh_Hazlewood
 + Chosen_KM_Asif + Chosen_Kamlesh_Nagarkoti + Chosen_Kane_Richardson
 + Chosen_Kartik_Tyagi + Chosen_Kulwant_Khejroliya + Chosen_Kyle_Jamieson
 + Chosen_Lockie_Ferguson + Chosen_Lukeman_Meriwala + Chosen_Mohsin_Khan
 + Chosen_Moises_Henriques + Chosen_Monu_Kumar + Chosen_Mustafizur_Rahman
 + Chosen_Nathan_CoulterNile + Chosen_Nitish_Reddy + Chosen_Obed_Mccoy
 + Chosen_Odean_Smith + Chosen_Pat_Cummins + Chosen_Pradeep_Sangwan
 + Chosen_Ramandeep_Singh + Chosen_Riley_Meredith + Chosen_Rovman_Powell
 + Chosen_Sandeep_Warrier + Chosen_Sean_Abbott + Chosen_Shardul_Thakur
 + Chosen_Sheldon_Cottrell + Chosen_Shivam_Mavi + Chosen_Siddharth_Kaul
 + Chosen_Sisanda_Magala + Chosen_Tim_Southee + Chosen_Tom_Curran
 + Chosen_Tymal_Mills + Chosen_Umesh_Yadav + Chosen_Varun_Aaron
 + Chosen_Wayne_Parnell + Chosen_Yash_Dayal <= 1
pace_min: Chosen_Adam_Milne + Chosen_Akash_Singh + Chosen_Alzarri_Joseph
 + Chosen_Aman_Khan + Chosen_Andrew_Tye + Chosen_Ankit_Rajpoot
 + Chosen_Arshad_Khan + Chosen_Basil_Thampi + Chosen_Ben_Stokes
 + Chosen_Chetan_Sakariya + Chosen_Chris_Jordan + Chosen_Chris_Woakes
 + Chosen_Daniel_Sams + Chosen_David_Wiese + Chosen_Dhawal_Kulkarni
 + Chosen_Duan_Jansen + Chosen_Dushmantha_Chameera + Chosen_Dwaine_Pretorius
 + Chosen_Gurnoor_Brar + Chosen_Harshal_Patel + Chosen_Jagadeesah_Suchith
 + Chosen_James_Pattinson + Chosen_Jason_Holder + Chosen_Jaydev_Unadkat
 + Chosen_Jhye_Richardson + Chosen_Jofra_Archer + Chosen_Josh_Hazlewood
 + Chosen_KM_Asif + Chosen_Kamlesh_Nagarkoti + Chosen_Kane_Richardson
 + Chosen_Kartik_Tyagi + Chosen_Kulwant_Khejroliya + Chosen_Kyle_Jamieson
 + Chosen_Lockie_Ferguson + Chosen_Lukeman_Meriwala + Chosen_Mohsin_Khan
 + Chosen_Moises_Henriques + Chosen_Monu_Kumar + Chosen_Mustafizur_Rahman
 + Chosen_Nathan_CoulterNile + Chosen_Nitish_Reddy + Chosen_Obed_Mccoy
 + Chosen_Odean_Smith + Chosen_Pat_Cummins + Chosen_Pradeep_Sangwan
 + Chosen_Ramandeep_Singh + Chosen_Riley_Meredith + Chosen_Rovman_Powell
 + Chosen_Sandeep_Warrier + Chosen_Sean_Abbott + Chosen_Shardul_Thakur
 + Chosen_Sheldon_Cottrell + Chosen_Shivam_Mavi + Chosen_Siddharth_Kaul
 + Chosen_Sisanda_Magala + Chosen_Tim_Southee + Chosen_Tom_Curran
 + Chosen_Tymal_Mills + Chosen_Umesh_Yadav + Chosen_Varun_Aaron
 + Chosen_Wayne_Parnell + Chosen_Yash_Dayal >= 0
spin_max: Chosen_Abdul_Basith + Chosen_Adil_Rashid + Chosen_Akeal_Hosein
 + Chosen_David_Willey + Chosen_Fabian_Allen + Chosen_George_Garton
 + Chosen_Hrithik_Shokeen + Chosen_Ishan_Porel + Chosen_Jalaj_Saxena
 + Chosen_Kumar_Kartikeya + Chosen_Michael_Bracewell + Chosen_Mohammad_Nabi
 + Chosen_Mohit_Rathee + Chosen_Mujeeb_Rahman + Chosen_Murugan_Ashwin
 + Chosen_Raghav_Goyal + Chosen_Sanjay_Yadav + Chosen_Shahbaz_Ahmed
 + Chosen_Shahbaz_Nadeem + Chosen_Shakib_Al_Hasan + Chosen_Shreyas_Gopal
 + Chosen_Swapnil_Singh + Chosen_Tabraiz_Shamsi + Chosen_Tristan_Stubbs
 + Chosen_Wanindu_Hasaranga <= 1
spin_min: Chosen_Abdul_Basith + Chosen_Adil_Rashid + Chosen_Akeal_Hosein
 + Chosen_David_Willey + Chosen_Fabian_Allen + Chosen_George_Garton
 + Chosen_Hrithik_Shokeen + Chosen_Ishan_Porel + Chosen_Jalaj_Saxena
 + Chosen_Kumar_Kartikeya + Chosen_Michael_Bracewell + Chosen_Mohammad_Nabi
 + Chosen_Mohit_Rathee + Chosen_Mujeeb_Rahman + Chosen_Murugan_Ashwin
 + Chosen_Raghav_Goyal + Chosen_Sanjay_Yadav + Chosen_Shahbaz_Ahmed
 + Chosen_Shahbaz_Nadeem + Chosen_Shakib_Al_Hasan + Chosen_Shreyas_Gopal
 + Chosen_Swapnil_Singh + Chosen_Tabraiz_Shamsi + Chosen_Tristan_Stubbs
 + Chosen_Wanindu_Hasaranga >= 0
team_max: Chosen_Abdul_Basith + Chosen_Abhijeet_Tomar + Chosen_Adam_Milne
 + Chosen_Adil_Rashid + Chosen_Akash_Singh + Chosen_Akeal_Hosein
 + Chosen_Alzarri_Joseph + Chosen_Aman_Khan + Chosen_Andrew_Tye
 + Chosen_Ankit_Rajpoot + Chosen_Arshad_Khan + Chosen_Baba_Indrajith
 + Chosen_Basil_Thampi + Chosen_Ben_Stokes + Chosen_Bhanuka_Rajapaksa
 + Chosen_Chetan_Sakariya + Chosen_Chris_Jordan + Chosen_Chris_Lynn
 + Chosen_Chris_Woakes + Chosen_Daniel_Sams + Chosen_Daryl_Mitchell
 + Chosen_Dasun_Shanaka + Chosen_David_Malan + Chosen_David_Wiese
 + Chosen_David_Willey + Chosen_Dhawal_Kulkarni + Chosen_Duan_Jansen
 + Chosen_Dushmantha_Chameera + Chosen_Dwaine_Pretorius + Chosen_Fabian_Allen
 + Chosen_George_Garton + Chosen_Gurkeerat_Singh + Chosen_Gurnoor_Brar
 + Chosen_Harry_Brook + Chosen_Harshal_Patel + Chosen_Hrithik_Shokeen
 + Chosen_Ishan_Porel + Chosen_Jagadeesah_Suchith + Chosen_Jalaj_Saxena
 + Chosen_James_Neesham + Chosen_James_Pattinson + Chosen_Jason_Holder
 + Chosen_Jaydev_Unadkat + Chosen_Jhye_Richardson + Chosen_Joe_Root
 + Chosen_Jofra_Archer + Chosen_Josh_Hazlewood + Chosen_Josh_Philippe
 + Chosen_KM_Asif + Chosen_Kamlesh_Nagarkoti + Chosen_Kane_Richardson
 + Chosen_Karan_Sharma + Chosen_Kartik_Tyagi + Chosen_Karun_Nair
 + Chosen_Kedar_Jadhav + Chosen_Kulwant_Khejroliya + Chosen_Kumar_Kartikeya
 + Chosen_Kyle_Jamieson + Chosen_Liton_Das + Chosen_Lockie_Ferguson
 + Chosen_Lukeman_Meriwala + Chosen_Manan_Vohra + Chosen_Mandeep_Singh
 + Chosen_Manish_Pandey + Chosen_Matthew_Short + Chosen_Michael_Bracewell
 + Chosen_Mohammad_Nabi + Chosen_Mohit_Rathee + Chosen_Mohsin_Khan
 + Chosen_Moises_Henriques + Chosen_Monu_Kumar + Chosen_Mujeeb_Rahman
 + Chosen_Murali_Vijay + Chosen_Murugan_Ashwin + Chosen_Mustafizur_Rahman
 + Chosen_Narayan_Jagadeesan + Chosen_Nathan_CoulterNile + Chosen_Nikhil_Naik
 + Chosen_Nitish_Reddy + Chosen_Obed_Mccoy + Chosen_Odean_Smith
 + Chosen_Pat_Cummins + Chosen_Phil_Salt + Chosen_Pradeep_Sangwan
 + Chosen_Priyam_Garg + Chosen_Raghav_Goyal + Chosen_Raj_Bawa
 + Chosen_Ramandeep_Singh + Chosen_Rasikh_Salam + Chosen_Rassie_van_der_Dussen
 + Chosen_Rilee_Rossouw + Chosen_Riley_Meredith + Chosen_Ripal_Patel
 + Chosen_Rovman_Powell + Chosen_Sachin_Baby + Chosen_Sam_Billings
 + Chosen_Sandeep_Warrier + Chosen_Sanjay_Yadav + Chosen_Sarfaraz_Khan
 + Chosen_Sean_Abbott + Chosen_Shahbaz_Ahmed + Chosen_Shahbaz_Nadeem
 + Chosen_Shahrukh_Khan + Chosen_Shakib_Al_Hasan + Chosen_Shardul_Thakur
 + Chosen_Shashank_Singh + Chosen_Sheldon_Cottrell
 + Chosen_Sherfane_Rutherford + Chosen_Shivam_Mavi + Chosen_Shreevats_Goswami
 + Chosen_Shreyas_Gopal + Chosen_Siddharth_Kaul + Chosen_Sisanda_Magala
 + Chosen_Srikar_Bharat + Chosen_Steve_Smith + Chosen_Swapnil_Singh
 + Chosen_Tabraiz_Shamsi + Chosen_Tim_Seifert + Chosen_Tim_Southee
 + Chosen_Tom_Banton + Chosen_Tom_Curran + Chosen_Tristan_Stubbs
 + Chosen_Tymal_Mills + Chosen_Umesh_Yadav + Chosen_Varun_Aaron
 + Chosen_Virat_Singh + Chosen_Vivrant_Sharma + Chosen_Wanindu_Hasaranga
 + Chosen_Wayne_Parnell + Chosen_Yash_Dayal <= 6
team_min: Chosen_Abdul_Basith + Chosen_Abhijeet_Tomar + Chosen_Adam_Milne
 + Chosen_Adil_Rashid + Chosen_Akash_Singh + Chosen_Akeal_Hosein
 + Chosen_Alzarri_Joseph + Chosen_Aman_Khan + Chosen_Andrew_Tye
 + Chosen_Ankit_Rajpoot + Chosen_Arshad_Khan + Chosen_Baba_Indrajith
 + Chosen_Basil_Thampi + Chosen_Ben_Stokes + Chosen_Bhanuka_Rajapaksa
 + Chosen_Chetan_Sakariya + Chosen_Chris_Jordan + Chosen_Chris_Lynn
 + Chosen_Chris_Woakes + Chosen_Daniel_Sams + Chosen_Daryl_Mitchell
 + Chosen_Dasun_Shanaka + Chosen_David_Malan + Chosen_David_Wiese
 + Chosen_David_Willey + Chosen_Dhawal_Kulkarni + Chosen_Duan_Jansen
 + Chosen_Dushmantha_Chameera + Chosen_Dwaine_Pretorius + Chosen_Fabian_Allen
 + Chosen_George_Garton + Chosen_Gurkeerat_Singh + Chosen_Gurnoor_Brar
 + Chosen_Harry_Brook + Chosen_Harshal_Patel + Chosen_Hrithik_Shokeen
 + Chosen_Ishan_Porel + Chosen_Jagadeesah_Suchith + Chosen_Jalaj_Saxena
 + Chosen_James_Neesham + Chosen_James_Pattinson + Chosen_Jason_Holder
 + Chosen_Jaydev_Unadkat + Chosen_Jhye_Richardson + Chosen_Joe_Root
 + Chosen_Jofra_Archer + Chosen_Josh_Hazlewood + Chosen_Josh_Philippe
 + Chosen_KM_Asif + Chosen_Kamlesh_Nagarkoti + Chosen_Kane_Richardson
 + Chosen_Karan_Sharma + Chosen_Kartik_Tyagi + Chosen_Karun_Nair
 + Chosen_Kedar_Jadhav + Chosen_Kulwant_Khejroliya + Chosen_Kumar_Kartikeya
 + Chosen_Kyle_Jamieson + Chosen_Liton_Das + Chosen_Lockie_Ferguson
 + Chosen_Lukeman_Meriwala + Chosen_Manan_Vohra + Chosen_Mandeep_Singh
 + Chosen_Manish_Pandey + Chosen_Matthew_Short + Chosen_Michael_Bracewell
 + Chosen_Mohammad_Nabi + Chosen_Mohit_Rathee + Chosen_Mohsin_Khan
 + Chosen_Moises_Henriques + Chosen_Monu_Kumar + Chosen_Mujeeb_Rahman
 + Chosen_Murali_Vijay + Chosen_Murugan_Ashwin + Chosen_Mustafizur_Rahman
 + Chosen_Narayan_Jagadeesan + Chosen_Nathan_CoulterNile + Chosen_Nikhil_Naik
 + Chosen_Nitish_Reddy + Chosen_Obed_Mccoy + Chosen_Odean_Smith
 + Chosen_Pat_Cummins + Chosen_Phil_Salt + Chosen_Pradeep_Sangwan
 + Chosen_Priyam_Garg + Chosen_Raghav_Goyal + Chosen_Raj_Bawa
 + Chosen_Ramandeep_Singh + Chosen_Rasikh_Salam + Chosen_Rassie_van_der_Dussen
 + Chosen_Rilee_Rossouw + Chosen_Riley_Meredith + Chosen_Ripal_Patel
 + Chosen_Rovman_Powell + Chosen_Sachin_Baby + Chosen_Sam_Billings
 + Chosen_Sandeep_Warrier + Chosen_Sanjay_Yadav + Chosen_Sarfaraz_Khan
 + Chosen_Sean_Abbott + Chosen_Shahbaz_Ahmed + Chosen_Shahbaz_Nadeem
 + Chosen_Shahrukh_Khan + Chosen_Shakib_Al_Hasan + Chosen_Shardul_Thakur
 + Chosen_Shashank_Singh + Chosen_Sheldon_Cottrell
 + Chosen_Sherfane_Rutherford + Chosen_Shivam_Mavi + Chosen_Shreevats_Goswami
 + Chosen_Shreyas_Gopal + Chosen_Siddharth_Kaul + Chosen_Sisanda_Magala
 + Chosen_Srikar_Bharat + Chosen_Steve_Smith + Chosen_Swapnil_Singh
 + Chosen_Tabraiz_Shamsi + Chosen_Tim_Seifert + Chosen_Tim_Southee
 + Chosen_Tom_Banton + Chosen_Tom_Curran + Chosen_Tristan_Stubbs
 + Chosen_Tymal_Mills + Chosen_Umesh_Yadav + Chosen_Varun_Aaron
 + Chosen_Virat_Singh + Chosen_Vivrant_Sharma + Chosen_Wanindu_Hasaranga
 + Chosen_Wayne_Parnell + Chosen_Yash_Dayal >= 0
wk_max: Chosen_Josh_Philippe + Chosen_Liton_Das + Chosen_Narayan_Jagadeesan
 + Chosen_Nikhil_Naik + Chosen_Phil_Salt + Chosen_Sam_Billings
 + Chosen_Sarfaraz_Khan + Chosen_Shreevats_Goswami + Chosen_Srikar_Bharat
 + Chosen_Tim_Seifert + Chosen_Tom_Banton + Chosen_Tristan_Stubbs <= 3
wk_min: Chosen_Josh_Philippe + Chosen_Liton_Das + Chosen_Narayan_Jagadeesan
 + Chosen_Nikhil_Naik + Chosen_Phil_Salt + Chosen_Sam_Billings
 + Chosen_Sarfaraz_Khan + Chosen_Shreevats_Goswami + Chosen_Srikar_Bharat
 + Chosen_Tim_Seifert + Chosen_Tom_Banton + Chosen_Tristan_Stubbs >= 1
Binaries
Chosen_Abdul_Basith
Chosen_Abhijeet_Tomar
Chosen_Adam_Milne
Chosen_Adil_Rashid
Chosen_Akash_Singh
Chosen_Akeal_Hosein
Chosen_Alzarri_Joseph
Chosen_Aman_Khan
Chosen_Andrew_Tye
Chosen_Ankit_Rajpoot
Chosen_Arshad_Khan
Chosen_Baba_Indrajith
Chosen_Basil_Thampi
Chosen_Ben_Stokes
Chosen_Bhanuka_Rajapaksa
Chosen_Chetan_Sakariya
Chosen_Chris_Jordan
Chosen_Chris_Lynn
Chosen_Chris_Woakes
Chosen_Daniel_Sams
Chosen_Daryl_Mitchell
Chosen_Dasun_Shanaka
Chosen_David_Malan
Chosen_David_Wiese
Chosen_David_Willey
Chosen_Dhawal_Kulkarni
Chosen_Duan_Jansen
Chosen_Dushmantha_Chameera
Chosen_Dwaine_Pretorius
Chosen_Fabian_Allen
Chosen_George_Garton
Chosen_Gurkeerat_Singh
Chosen_Gurnoor_Brar
Chosen_Harry_Brook
Chosen_Harshal_Patel
Chosen_Hrithik_Shokeen
Chosen_Ishan_Porel
Chosen_Jagadeesah_Suchith
Chosen_Jalaj_Saxena
Chosen_James_Neesham
Chosen_James_Pattinson
Chosen_Jason_Holder
Chosen_Jaydev_Unadkat
Chosen_Jhye_Richardson
Chosen_Joe_Root
Chosen_Jofra_Archer
Chosen_Josh_Hazlewood
Chosen_Josh_Philippe
Chosen_KM_Asif
Chosen_Kamlesh_Nagarkoti
Chosen_Kane_Richardson
Chosen_Karan_Sharma
Chosen_Kartik_Tyagi
Chosen_Karun_Nair
Chosen_Kedar_Jadhav
Chosen_Kulwant_Khejroliya
Chosen_Kumar_Kartikeya
Chosen_Kyle_Jamieson
Chosen_Liton_Das
Chosen_Lockie_Ferguson
Chosen_Lukeman_Meriwala
Chosen_Manan_Vohra
Chosen_Mandeep_Singh
Chosen_Manish_Pandey
Chosen_Matthew_Short
Chosen_Michael_Bracewell
Chosen_Mohammad_Nabi
Chosen_Mohit_Rathee
Chosen_Mohsin_Khan
Chosen_Moises_Henriques
Chosen_Monu_Kumar
Chosen_Mujeeb_Rahman
Chosen_Murali_Vijay
Chosen_Murugan_Ashwin
Chosen_Mustafizur_Rahman
Chosen_Narayan_Jagadeesan
Chosen_Nathan_CoulterNile
Chosen_Nikhil_Naik
Chosen_Nitish_Reddy
Chosen_Obed_Mccoy
Chosen_Odean_Smith
Chosen_Pat_Cummins
Chosen_Phil_Salt
Chosen_Pradeep_Sangwan
Chosen_Priyam_Garg
Chosen_Raghav_Goyal
Chosen_Raj_Bawa
Chosen_Ramandeep_Singh
Chosen_Rasikh_Salam
Chosen_Rassie_van_der_Dussen
Chosen_Rilee_Rossouw
Chosen_Riley_Meredith
Chosen_Ripal_Patel
Chosen_Rovman_Powell
Chosen_Sachin_Baby
Chosen_Sam_Billings
Chosen_Sandeep_Warrier
Chosen_Sanjay_Yadav
Chosen_Sarfaraz_Khan
Chosen_Sean_Abbott
Chosen_Shahbaz_Ahmed
Chosen_Shahbaz_Nadeem
Chosen_Shahrukh_Khan
Chosen_Shakib_Al_Hasan
Chosen_Shardul_Thakur
Chosen_Shashank_Singh
Chosen_Sheldon_Cottrell
Chosen_Sherfane_Rutherford
Chosen_Shivam_Mavi
Chosen_Shreevats_Goswami
Chosen_Shreyas_Gopal
Chosen_Siddharth_Kaul
Chosen_Sisanda_Magala
Chosen_Srikar_Bharat
Chosen_Steve_Smith
Chosen_Swapnil_Singh
Chosen_Tabraiz_Shamsi
Chosen_Tim_Seifert
Chosen_Tim_Southee
Chosen_Tom_Banton
Chosen_Tom_Curran
Chosen_Tristan_Stubbs
Chosen_Tymal_Mills
Chosen_Umesh_Yadav
Chosen_Varun_Aaron
Chosen_Virat_Singh
Chosen_Vivrant_Sharma
Chosen_Wanindu_Hasaranga
Chosen_Wayne_Parnell
Chosen_Yash_Dayal
End
